; benchmark generated from python API
(set-info :status unknown)
(declare-fun syscall_stub_newfstatat_83_64 () (_ BitVec 64))
(declare-fun mem_c0000f45_79_992 () (_ BitVec 992))
(declare-fun mem_c0001010_98_32 () (_ BitVec 32))
(declare-fun mem_fffffff9feffffff_124_8 () (_ BitVec 8))
(declare-fun mem_fffffff9ff000000_360_128 () (_ BitVec 128))
(assert
 (let ((?x47 ((_ extract 31 0) syscall_stub_newfstatat_83_64)))
 (let (($x52 (bvule ?x47 (_ bv4294963200 32))))
 (not $x52))))
(assert
 (let ((?x3699 ((_ extract 891 891) mem_c0000f45_79_992)))
 (= (_ bv0 1) ?x3699)))
(assert
 (let ((?x2189 ((_ extract 900 900) mem_c0000f45_79_992)))
 (= (_ bv0 1) ?x2189)))
(assert
 (let ((?x2374 ((_ extract 839 832) mem_c0000f45_79_992)))
 (let ((?x2364 ((_ extract 831 824) mem_c0000f45_79_992)))
 (let ((?x2349 ((_ extract 823 816) mem_c0000f45_79_992)))
 (let ((?x2357 ((_ extract 815 808) mem_c0000f45_79_992)))
 (let ((?x2362 ((_ extract 807 800) mem_c0000f45_79_992)))
 (let ((?x2363 ((_ extract 799 792) mem_c0000f45_79_992)))
 (let ((?x593 (concat (concat ((_ extract 783 776) mem_c0000f45_79_992) ((_ extract 791 784) mem_c0000f45_79_992)) ?x2363)))
 (let ((?x4215 (concat (concat (concat (concat ?x593 ?x2362) ?x2357) ?x2349) ?x2364)))
 (let ((?x3812 (concat ?x4215 ?x2374)))
 (let ((?x2427 ((_ extract 775 768) mem_c0000f45_79_992)))
 (let ((?x2419 ((_ extract 767 760) mem_c0000f45_79_992)))
 (let ((?x2429 ((_ extract 759 752) mem_c0000f45_79_992)))
 (let ((?x2417 ((_ extract 751 744) mem_c0000f45_79_992)))
 (let ((?x2410 ((_ extract 743 736) mem_c0000f45_79_992)))
 (let ((?x2411 ((_ extract 735 728) mem_c0000f45_79_992)))
 (let ((?x4124 (concat (concat ((_ extract 719 712) mem_c0000f45_79_992) ((_ extract 727 720) mem_c0000f45_79_992)) ?x2411)))
 (let ((?x4642 (concat ?x4124 ?x2410)))
 (let ((?x3823 (concat (concat (concat (concat ?x4642 ?x2417) ?x2429) ?x2419) ?x2427)))
 (bvule ?x3823 ?x3812))))))))))))))))))))
(assert
 (let ((?x8705 ((_ extract 888 888) mem_c0000f45_79_992)))
 (let (($x9102 (= (_ bv0 1) ?x8705)))
 (not $x9102))))
(assert
 (let ((?x15059 ((_ extract 199 192) mem_c0000f45_79_992)))
 (let ((?x15057 ((_ extract 191 184) mem_c0000f45_79_992)))
 (let ((?x15055 ((_ extract 183 176) mem_c0000f45_79_992)))
 (let ((?x15053 ((_ extract 175 168) mem_c0000f45_79_992)))
 (let ((?x15049 ((_ extract 167 160) mem_c0000f45_79_992)))
 (let ((?x15050 ((_ extract 159 152) mem_c0000f45_79_992)))
 (let ((?x21207 (concat (concat ((_ extract 143 136) mem_c0000f45_79_992) ((_ extract 151 144) mem_c0000f45_79_992)) ?x15050)))
 (let ((?x20542 (concat (concat (concat (concat (concat ?x21207 ?x15049) ?x15053) ?x15055) ?x15057) ?x15059)))
 (let (($x42884 (bvule ?x20542 (_ bv18446744047922970623 64))))
 (not $x42884)))))))))))
(assert
 (let ((?x14887 ((_ extract 327 320) mem_c0000f45_79_992)))
 (= (_ bv255 8) ?x14887)))
(assert
 (let ((?x14869 ((_ extract 319 312) mem_c0000f45_79_992)))
 (= (_ bv255 8) ?x14869)))
(assert
 (let ((?x14893 ((_ extract 311 304) mem_c0000f45_79_992)))
 (= (_ bv255 8) ?x14893)))
(assert
 (let ((?x14875 ((_ extract 303 296) mem_c0000f45_79_992)))
 (= (_ bv254 8) ?x14875)))
(assert
 (let ((?x14872 ((_ extract 295 288) mem_c0000f45_79_992)))
 (= (_ bv249 8) ?x14872)))
(assert
 (let ((?x14857 ((_ extract 287 280) mem_c0000f45_79_992)))
 (= (_ bv255 8) ?x14857)))
(assert
 (let ((?x14868 ((_ extract 279 272) mem_c0000f45_79_992)))
 (= (_ bv255 8) ?x14868)))
(assert
 (let ((?x14951 ((_ extract 271 264) mem_c0000f45_79_992)))
 (= (_ bv255 8) ?x14951)))
(assert
 (let ((?x2357 ((_ extract 815 808) mem_c0000f45_79_992)))
 (let ((?x2417 ((_ extract 751 744) mem_c0000f45_79_992)))
 (let (($x1690 (= ?x2417 ?x2357)))
 (let (($x3670 (not $x1690)))
 (let ((?x2362 ((_ extract 807 800) mem_c0000f45_79_992)))
 (let ((?x2410 ((_ extract 743 736) mem_c0000f45_79_992)))
 (let (($x1703 (= ?x2410 ?x2362)))
 (let (($x3664 (not $x1703)))
 (let ((?x2345 ((_ extract 783 776) mem_c0000f45_79_992)))
 (let ((?x2400 ((_ extract 719 712) mem_c0000f45_79_992)))
 (let (($x1701 (= ?x2400 ?x2345)))
 (let (($x3671 (not $x1701)))
 (let ((?x2363 ((_ extract 799 792) mem_c0000f45_79_992)))
 (let ((?x2411 ((_ extract 735 728) mem_c0000f45_79_992)))
 (let (($x1704 (= ?x2411 ?x2363)))
 (let (($x3672 (not $x1704)))
 (let ((?x2346 ((_ extract 791 784) mem_c0000f45_79_992)))
 (let ((?x2401 ((_ extract 727 720) mem_c0000f45_79_992)))
 (let (($x1693 (= ?x2401 ?x2346)))
 (let (($x4136 (not $x1693)))
 (let ((?x2364 ((_ extract 831 824) mem_c0000f45_79_992)))
 (let ((?x2419 ((_ extract 767 760) mem_c0000f45_79_992)))
 (let (($x1155 (= ?x2419 ?x2364)))
 (let (($x4137 (not $x1155)))
 (let ((?x2374 ((_ extract 839 832) mem_c0000f45_79_992)))
 (let ((?x2427 ((_ extract 775 768) mem_c0000f45_79_992)))
 (let (($x1152 (= ?x2427 ?x2374)))
 (let (($x4139 (not $x1152)))
 (let ((?x2349 ((_ extract 823 816) mem_c0000f45_79_992)))
 (let ((?x2429 ((_ extract 759 752) mem_c0000f45_79_992)))
 (let (($x1714 (= ?x2429 ?x2349)))
 (let (($x4539 (not $x1714)))
 (let (($x6038 (or $x4539 $x4139 $x4137 $x4136 $x3672 $x3671 $x3664 $x3670)))
 (let (($x9215 (not $x6038)))
 (let ((?x4533 (concat (concat (concat (concat (concat ?x2345 ?x2346) ?x2363) ?x2362) ?x2357) ?x2349)))
 (let ((?x4215 (concat ?x4533 ?x2364)))
 (let ((?x3812 (concat ?x4215 ?x2374)))
 (let ((?x3646 (bvmul (_ bv18446744073709551615 64) ?x3812)))
 (let ((?x3809 (concat (concat (concat (concat (concat ?x2400 ?x2401) ?x2411) ?x2410) ?x2417) ?x2429)))
 (let ((?x3823 (concat (concat ?x3809 ?x2419) ?x2427)))
 (let ((?x3827 (bvadd ?x3823 ?x3646)))
 (let ((?x2482 ((_ extract 63 63) ?x3827)))
 (let (($x2285 (= (_ bv1 1) ?x2482)))
 (or $x2285 $x9215)))))))))))))))))))))))))))))))))))))))))))))
(assert
 (let ((?x15050 ((_ extract 159 152) mem_c0000f45_79_992)))
 (let (($x587654 (= (_ bv255 8) ?x15050)))
 (let (($x587939 (not $x587654)))
 (let ((?x15057 ((_ extract 191 184) mem_c0000f45_79_992)))
 (let (($x61793 (= (_ bv0 8) ?x15057)))
 (let (($x584639 (not $x61793)))
 (let ((?x15059 ((_ extract 199 192) mem_c0000f45_79_992)))
 (let (($x58109 (= (_ bv0 8) ?x15059)))
 (let (($x583666 (not $x58109)))
 (let ((?x15055 ((_ extract 183 176) mem_c0000f45_79_992)))
 (let (($x57918 (= (_ bv0 8) ?x15055)))
 (let (($x590036 (not $x57918)))
 (let ((?x15047 ((_ extract 143 136) mem_c0000f45_79_992)))
 (let (($x39845 (= (_ bv255 8) ?x15047)))
 (let (($x41002 (not $x39845)))
 (let ((?x15049 ((_ extract 167 160) mem_c0000f45_79_992)))
 (let (($x51279 (= (_ bv249 8) ?x15049)))
 (let (($x584818 (not $x51279)))
 (let ((?x15048 ((_ extract 151 144) mem_c0000f45_79_992)))
 (let (($x41249 (= (_ bv255 8) ?x15048)))
 (let (($x590847 (not $x41249)))
 (let ((?x15053 ((_ extract 175 168) mem_c0000f45_79_992)))
 (let (($x56273 (= (_ bv255 8) ?x15053)))
 (let (($x584848 (not $x56273)))
 (or $x584848 $x590847 $x584818 $x41002 $x590036 $x583666 $x584639 $x587939))))))))))))))))))))))))))
(assert
 (= (_ bv0 32) mem_c0001010_98_32))
(assert
 (let (($x44492 (= (_ bv10 8) mem_fffffff9feffffff_124_8)))
 (not $x44492)))
(assert
 (let ((?x14887 ((_ extract 327 320) mem_c0000f45_79_992)))
 (let ((?x14869 ((_ extract 319 312) mem_c0000f45_79_992)))
 (let ((?x14893 ((_ extract 311 304) mem_c0000f45_79_992)))
 (let ((?x14875 ((_ extract 303 296) mem_c0000f45_79_992)))
 (let ((?x14872 ((_ extract 295 288) mem_c0000f45_79_992)))
 (let ((?x14857 ((_ extract 287 280) mem_c0000f45_79_992)))
 (let ((?x15107 (concat (concat ((_ extract 271 264) mem_c0000f45_79_992) ((_ extract 279 272) mem_c0000f45_79_992)) ?x14857)))
 (let ((?x15071 (concat (concat (concat (concat (concat ?x15107 ?x14872) ?x14875) ?x14893) ?x14869) ?x14887)))
 (let ((?x55842 (bvadd (_ bv1 64) ?x15071)))
 (= (_ bv18446744047922970624 64) ?x55842)))))))))))
(assert
 (let ((?x770107 ((_ extract 7 0) mem_fffffff9ff000000_360_128)))
 (let (($x770657 (= (_ bv10 8) ?x770107)))
 (let ((?x776102 (ite $x770657 (_ bv1 1) (_ bv0 1))))
 (let ((?x768195 ((_ extract 15 8) mem_fffffff9ff000000_360_128)))
 (let (($x770724 (= (_ bv10 8) ?x768195)))
 (let ((?x95739 (ite $x770724 (_ bv1 1) (_ bv0 1))))
 (let ((?x770896 ((_ extract 23 16) mem_fffffff9ff000000_360_128)))
 (let (($x770719 (= (_ bv10 8) ?x770896)))
 (let ((?x775980 (ite $x770719 (_ bv1 1) (_ bv0 1))))
 (let ((?x768491 ((_ extract 31 24) mem_fffffff9ff000000_360_128)))
 (let (($x770675 (= (_ bv10 8) ?x768491)))
 (let ((?x769725 (ite $x770675 (_ bv1 1) (_ bv0 1))))
 (let ((?x769064 ((_ extract 39 32) mem_fffffff9ff000000_360_128)))
 (let (($x770645 (= (_ bv10 8) ?x769064)))
 (let ((?x767768 (ite $x770645 (_ bv1 1) (_ bv0 1))))
 (let ((?x770652 ((_ extract 47 40) mem_fffffff9ff000000_360_128)))
 (let (($x770651 (= (_ bv10 8) ?x770652)))
 (let ((?x770619 (ite $x770651 (_ bv1 1) (_ bv0 1))))
 (let ((?x770650 ((_ extract 55 48) mem_fffffff9ff000000_360_128)))
 (let (($x770647 (= (_ bv10 8) ?x770650)))
 (let ((?x769489 (ite $x770647 (_ bv1 1) (_ bv0 1))))
 (let ((?x769808 ((_ extract 63 56) mem_fffffff9ff000000_360_128)))
 (let (($x770931 (= (_ bv10 8) ?x769808)))
 (let ((?x769314 (ite $x770931 (_ bv1 1) (_ bv0 1))))
 (let ((?x769968 ((_ extract 71 64) mem_fffffff9ff000000_360_128)))
 (let (($x770670 (= (_ bv10 8) ?x769968)))
 (let ((?x770510 (ite $x770670 (_ bv1 1) (_ bv0 1))))
 (let ((?x768699 ((_ extract 79 72) mem_fffffff9ff000000_360_128)))
 (let (($x767489 (= (_ bv10 8) ?x768699)))
 (let ((?x768059 (ite $x767489 (_ bv1 1) (_ bv0 1))))
 (let ((?x770494 ((_ extract 87 80) mem_fffffff9ff000000_360_128)))
 (let (($x770489 (= (_ bv10 8) ?x770494)))
 (let ((?x770463 (ite $x770489 (_ bv1 1) (_ bv0 1))))
 (let ((?x765782 ((_ extract 95 88) mem_fffffff9ff000000_360_128)))
 (let (($x770301 (= (_ bv10 8) ?x765782)))
 (let ((?x769606 (ite $x770301 (_ bv1 1) (_ bv0 1))))
 (let ((?x770737 ((_ extract 103 96) mem_fffffff9ff000000_360_128)))
 (let (($x770866 (= (_ bv10 8) ?x770737)))
 (let ((?x768983 (ite $x770866 (_ bv1 1) (_ bv0 1))))
 (let ((?x770713 ((_ extract 111 104) mem_fffffff9ff000000_360_128)))
 (let (($x371740 (= (_ bv10 8) ?x770713)))
 (let ((?x770518 (ite $x371740 (_ bv1 1) (_ bv0 1))))
 (let ((?x45790 ((_ extract 119 112) mem_fffffff9ff000000_360_128)))
 (let (($x376080 (= (_ bv10 8) ?x45790)))
 (let ((?x770606 (ite $x376080 (_ bv1 1) (_ bv0 1))))
 (let ((?x43898 ((_ extract 127 120) mem_fffffff9ff000000_360_128)))
 (let (($x44280 (= (_ bv10 8) ?x43898)))
 (let ((?x770004 (ite $x44280 (_ bv1 1) (_ bv0 1))))
 (let ((?x774511 (concat (concat (concat (concat (concat ?x770004 ?x770606) ?x770518) ?x768983) ?x769606) ?x770463)))
 (let ((?x277567 (concat (concat (concat (concat (concat ?x774511 ?x768059) ?x770510) ?x769314) ?x769489) ?x770619)))
 (let ((?x774777 (concat (concat (concat (concat (concat ?x277567 ?x767768) ?x769725) ?x775980) ?x95739) ?x776102)))
 (and (distinct (_ bv0 16) ?x774777) true)))))))))))))))))))))))))))))))))))))))))))))))))))))
(assert
 (let ((?x770107 ((_ extract 7 0) mem_fffffff9ff000000_360_128)))
 (let (($x770657 (= (_ bv10 8) ?x770107)))
 (let ((?x776102 (ite $x770657 (_ bv1 1) (_ bv0 1))))
 (let ((?x768195 ((_ extract 15 8) mem_fffffff9ff000000_360_128)))
 (let (($x770724 (= (_ bv10 8) ?x768195)))
 (let ((?x95739 (ite $x770724 (_ bv1 1) (_ bv0 1))))
 (let ((?x770896 ((_ extract 23 16) mem_fffffff9ff000000_360_128)))
 (let (($x770719 (= (_ bv10 8) ?x770896)))
 (let ((?x775980 (ite $x770719 (_ bv1 1) (_ bv0 1))))
 (let ((?x768491 ((_ extract 31 24) mem_fffffff9ff000000_360_128)))
 (let (($x770675 (= (_ bv10 8) ?x768491)))
 (let ((?x769725 (ite $x770675 (_ bv1 1) (_ bv0 1))))
 (let ((?x769064 ((_ extract 39 32) mem_fffffff9ff000000_360_128)))
 (let (($x770645 (= (_ bv10 8) ?x769064)))
 (let ((?x767768 (ite $x770645 (_ bv1 1) (_ bv0 1))))
 (let ((?x770652 ((_ extract 47 40) mem_fffffff9ff000000_360_128)))
 (let (($x770651 (= (_ bv10 8) ?x770652)))
 (let ((?x770619 (ite $x770651 (_ bv1 1) (_ bv0 1))))
 (let ((?x770650 ((_ extract 55 48) mem_fffffff9ff000000_360_128)))
 (let (($x770647 (= (_ bv10 8) ?x770650)))
 (let ((?x769489 (ite $x770647 (_ bv1 1) (_ bv0 1))))
 (let ((?x769808 ((_ extract 63 56) mem_fffffff9ff000000_360_128)))
 (let (($x770931 (= (_ bv10 8) ?x769808)))
 (let ((?x769314 (ite $x770931 (_ bv1 1) (_ bv0 1))))
 (let ((?x769968 ((_ extract 71 64) mem_fffffff9ff000000_360_128)))
 (let (($x770670 (= (_ bv10 8) ?x769968)))
 (let ((?x770510 (ite $x770670 (_ bv1 1) (_ bv0 1))))
 (let ((?x768699 ((_ extract 79 72) mem_fffffff9ff000000_360_128)))
 (let (($x767489 (= (_ bv10 8) ?x768699)))
 (let ((?x768059 (ite $x767489 (_ bv1 1) (_ bv0 1))))
 (let ((?x770494 ((_ extract 87 80) mem_fffffff9ff000000_360_128)))
 (let (($x770489 (= (_ bv10 8) ?x770494)))
 (let ((?x770463 (ite $x770489 (_ bv1 1) (_ bv0 1))))
 (let ((?x765782 ((_ extract 95 88) mem_fffffff9ff000000_360_128)))
 (let (($x770301 (= (_ bv10 8) ?x765782)))
 (let ((?x769606 (ite $x770301 (_ bv1 1) (_ bv0 1))))
 (let ((?x770737 ((_ extract 103 96) mem_fffffff9ff000000_360_128)))
 (let (($x770866 (= (_ bv10 8) ?x770737)))
 (let ((?x768983 (ite $x770866 (_ bv1 1) (_ bv0 1))))
 (let ((?x770713 ((_ extract 111 104) mem_fffffff9ff000000_360_128)))
 (let (($x371740 (= (_ bv10 8) ?x770713)))
 (let ((?x770518 (ite $x371740 (_ bv1 1) (_ bv0 1))))
 (let ((?x45790 ((_ extract 119 112) mem_fffffff9ff000000_360_128)))
 (let (($x376080 (= (_ bv10 8) ?x45790)))
 (let ((?x770606 (ite $x376080 (_ bv1 1) (_ bv0 1))))
 (let ((?x43898 ((_ extract 127 120) mem_fffffff9ff000000_360_128)))
 (let (($x44280 (= (_ bv10 8) ?x43898)))
 (let ((?x770004 (ite $x44280 (_ bv1 1) (_ bv0 1))))
 (let ((?x1308297 (concat (concat (concat (concat (concat (_ bv0 16) ?x770004) ?x770606) ?x770518) ?x768983) ?x769606)))
 (let ((?x1307365 (concat (concat (concat (concat (concat ?x1308297 ?x770463) ?x768059) ?x770510) ?x769314) ?x769489)))
 (let ((?x1306538 (concat (concat (concat (concat (concat ?x1307365 ?x770619) ?x767768) ?x769725) ?x775980) ?x95739)))
 (let ((?x1308261 (concat ?x1306538 ?x776102)))
 (let ((?x1310296 ((_ zero_extend 32) ?x1308261)))
 (let ((?x1188388 (ite $x44280 (_ bv15 64) (_ bv64 64))))
 (let ((?x1188747 (ite $x376080 (_ bv14 64) ?x1188388)))
 (let ((?x1310160 (ite $x371740 (_ bv13 64) ?x1188747)))
 (let ((?x1311187 (ite $x770866 (_ bv12 64) ?x1310160)))
 (let ((?x1189425 (ite $x770301 (_ bv11 64) ?x1311187)))
 (let ((?x1306373 (ite $x770489 (_ bv10 64) ?x1189425)))
 (let ((?x1309380 (ite $x767489 (_ bv9 64) ?x1306373)))
 (let ((?x1313048 (ite $x770670 (_ bv8 64) ?x1309380)))
 (let ((?x1309527 (ite $x770931 (_ bv7 64) ?x1313048)))
 (let ((?x1308010 (ite $x770647 (_ bv6 64) ?x1309527)))
 (let ((?x1312922 (ite $x770651 (_ bv5 64) ?x1308010)))
 (let ((?x1327395 (ite $x770645 (_ bv4 64) ?x1312922)))
 (let ((?x1256165 (ite $x770675 (_ bv3 64) ?x1327395)))
 (let ((?x1253309 (ite $x770719 (_ bv2 64) ?x1256165)))
 (let ((?x1308869 (ite $x770724 (_ bv1 64) ?x1253309)))
 (let ((?x1309190 (ite $x770657 (_ bv0 64) ?x1308869)))
 (let (($x1311881 (and (distinct (_ bv0 32) ?x1308261) true)))
 (let ((?x1308452 (ite $x1311881 ?x1309190 ?x1310296)))
 (let ((?x1308723 ((_ extract 31 0) ?x1308452)))
 (let ((?x1311081 ((_ zero_extend 32) ?x1308723)))
 (let ((?x14887 ((_ extract 327 320) mem_c0000f45_79_992)))
 (let ((?x14869 ((_ extract 319 312) mem_c0000f45_79_992)))
 (let ((?x14893 ((_ extract 311 304) mem_c0000f45_79_992)))
 (let ((?x14875 ((_ extract 303 296) mem_c0000f45_79_992)))
 (let ((?x14872 ((_ extract 295 288) mem_c0000f45_79_992)))
 (let ((?x14857 ((_ extract 287 280) mem_c0000f45_79_992)))
 (let ((?x15107 (concat (concat ((_ extract 271 264) mem_c0000f45_79_992) ((_ extract 279 272) mem_c0000f45_79_992)) ?x14857)))
 (let ((?x15071 (concat (concat (concat (concat (concat ?x15107 ?x14872) ?x14875) ?x14893) ?x14869) ?x14887)))
 (let ((?x96985 (bvmul (_ bv18446744073709551615 64) ?x15071)))
 (let ((?x15059 ((_ extract 199 192) mem_c0000f45_79_992)))
 (let ((?x15057 ((_ extract 191 184) mem_c0000f45_79_992)))
 (let ((?x15055 ((_ extract 183 176) mem_c0000f45_79_992)))
 (let ((?x15053 ((_ extract 175 168) mem_c0000f45_79_992)))
 (let ((?x15049 ((_ extract 167 160) mem_c0000f45_79_992)))
 (let ((?x15050 ((_ extract 159 152) mem_c0000f45_79_992)))
 (let ((?x21207 (concat (concat ((_ extract 143 136) mem_c0000f45_79_992) ((_ extract 151 144) mem_c0000f45_79_992)) ?x15050)))
 (let ((?x20542 (concat (concat (concat (concat (concat ?x21207 ?x15049) ?x15053) ?x15055) ?x15057) ?x15059)))
 (let ((?x79164 (bvadd (bvadd (_ bv18446744073709551615 64) ?x20542) ?x96985)))
 (let ((?x79480 ((_ extract 312 312) mem_c0000f45_79_992)))
 (let ((?x76524 (concat ?x79480 ?x14887)))
 (let ((?x77434 (bvmul (_ bv511 9) ?x76524)))
 (let ((?x79635 ((_ extract 184 184) mem_c0000f45_79_992)))
 (let ((?x79447 (concat ?x79635 ?x15059)))
 (let ((?x195249 (bvadd (_ bv511 9) ?x79447)))
 (let ((?x189101 (bvadd ?x195249 ?x77434)))
 (let (($x190427 (bvule ?x189101 (_ bv398 9))))
 (let ((?x196528 ((_ extract 63 9) ?x79164)))
 (let (($x76379 (= (_ bv0 55) ?x196528)))
 (let (($x187780 (and $x76379 $x190427)))
 (let ((?x188401 (ite $x187780 ?x79164 (_ bv398 64))))
 (bvugt ?x188401 ?x1311081)))))))))))))))))))))))))))))))))))))))))))))))))))))))))))))))))))))))))))))))))))))))))))))))))))))))))
(assert
 (let ((?x14887 ((_ extract 327 320) mem_c0000f45_79_992)))
 (let ((?x14869 ((_ extract 319 312) mem_c0000f45_79_992)))
 (let ((?x14893 ((_ extract 311 304) mem_c0000f45_79_992)))
 (let ((?x14875 ((_ extract 303 296) mem_c0000f45_79_992)))
 (let ((?x14872 ((_ extract 295 288) mem_c0000f45_79_992)))
 (let ((?x14857 ((_ extract 287 280) mem_c0000f45_79_992)))
 (let ((?x15107 (concat (concat ((_ extract 271 264) mem_c0000f45_79_992) ((_ extract 279 272) mem_c0000f45_79_992)) ?x14857)))
 (let ((?x15071 (concat (concat (concat (concat (concat ?x15107 ?x14872) ?x14875) ?x14893) ?x14869) ?x14887)))
 (let ((?x43898 ((_ extract 127 120) mem_fffffff9ff000000_360_128)))
 (let (($x44280 (= (_ bv10 8) ?x43898)))
 (let ((?x1901895 (ite $x44280 (_ bv15 32) (_ bv64 32))))
 (let ((?x45790 ((_ extract 119 112) mem_fffffff9ff000000_360_128)))
 (let (($x376080 (= (_ bv10 8) ?x45790)))
 (let ((?x1901501 (ite $x376080 (_ bv14 32) ?x1901895)))
 (let ((?x770713 ((_ extract 111 104) mem_fffffff9ff000000_360_128)))
 (let (($x371740 (= (_ bv10 8) ?x770713)))
 (let ((?x1906822 (ite $x371740 (_ bv13 32) ?x1901501)))
 (let ((?x770737 ((_ extract 103 96) mem_fffffff9ff000000_360_128)))
 (let (($x770866 (= (_ bv10 8) ?x770737)))
 (let ((?x1936975 (ite $x770866 (_ bv12 32) ?x1906822)))
 (let ((?x765782 ((_ extract 95 88) mem_fffffff9ff000000_360_128)))
 (let (($x770301 (= (_ bv10 8) ?x765782)))
 (let ((?x277423 (ite $x770301 (_ bv11 32) ?x1936975)))
 (let ((?x770494 ((_ extract 87 80) mem_fffffff9ff000000_360_128)))
 (let (($x770489 (= (_ bv10 8) ?x770494)))
 (let ((?x1902282 (ite $x770489 (_ bv10 32) ?x277423)))
 (let ((?x768699 ((_ extract 79 72) mem_fffffff9ff000000_360_128)))
 (let (($x767489 (= (_ bv10 8) ?x768699)))
 (let ((?x1902474 (ite $x767489 (_ bv9 32) ?x1902282)))
 (let ((?x769968 ((_ extract 71 64) mem_fffffff9ff000000_360_128)))
 (let (($x770670 (= (_ bv10 8) ?x769968)))
 (let ((?x96545 (ite $x770670 (_ bv8 32) ?x1902474)))
 (let ((?x769808 ((_ extract 63 56) mem_fffffff9ff000000_360_128)))
 (let (($x770931 (= (_ bv10 8) ?x769808)))
 (let ((?x279902 (ite $x770931 (_ bv7 32) ?x96545)))
 (let ((?x770650 ((_ extract 55 48) mem_fffffff9ff000000_360_128)))
 (let (($x770647 (= (_ bv10 8) ?x770650)))
 (let ((?x275149 (ite $x770647 (_ bv6 32) ?x279902)))
 (let ((?x770652 ((_ extract 47 40) mem_fffffff9ff000000_360_128)))
 (let (($x770651 (= (_ bv10 8) ?x770652)))
 (let ((?x1903693 (ite $x770651 (_ bv5 32) ?x275149)))
 (let ((?x769064 ((_ extract 39 32) mem_fffffff9ff000000_360_128)))
 (let (($x770645 (= (_ bv10 8) ?x769064)))
 (let ((?x1901471 (ite $x770645 (_ bv4 32) ?x1903693)))
 (let ((?x768491 ((_ extract 31 24) mem_fffffff9ff000000_360_128)))
 (let (($x770675 (= (_ bv10 8) ?x768491)))
 (let ((?x277591 (ite $x770675 (_ bv3 32) ?x1901471)))
 (let ((?x770896 ((_ extract 23 16) mem_fffffff9ff000000_360_128)))
 (let (($x770719 (= (_ bv10 8) ?x770896)))
 (let ((?x279435 (ite $x770719 (_ bv2 32) ?x277591)))
 (let ((?x768195 ((_ extract 15 8) mem_fffffff9ff000000_360_128)))
 (let (($x770724 (= (_ bv10 8) ?x768195)))
 (let ((?x1903966 (ite $x770724 (_ bv1 32) ?x279435)))
 (let ((?x770107 ((_ extract 7 0) mem_fffffff9ff000000_360_128)))
 (let (($x770657 (= (_ bv10 8) ?x770107)))
 (let ((?x1898957 (ite $x770657 (_ bv0 32) ?x1903966)))
 (let ((?x776102 (ite $x770657 (_ bv1 1) (_ bv0 1))))
 (let ((?x95739 (ite $x770724 (_ bv1 1) (_ bv0 1))))
 (let ((?x775980 (ite $x770719 (_ bv1 1) (_ bv0 1))))
 (let ((?x769725 (ite $x770675 (_ bv1 1) (_ bv0 1))))
 (let ((?x767768 (ite $x770645 (_ bv1 1) (_ bv0 1))))
 (let ((?x770619 (ite $x770651 (_ bv1 1) (_ bv0 1))))
 (let ((?x769489 (ite $x770647 (_ bv1 1) (_ bv0 1))))
 (let ((?x769314 (ite $x770931 (_ bv1 1) (_ bv0 1))))
 (let ((?x770510 (ite $x770670 (_ bv1 1) (_ bv0 1))))
 (let ((?x768059 (ite $x767489 (_ bv1 1) (_ bv0 1))))
 (let ((?x770463 (ite $x770489 (_ bv1 1) (_ bv0 1))))
 (let ((?x769606 (ite $x770301 (_ bv1 1) (_ bv0 1))))
 (let ((?x768983 (ite $x770866 (_ bv1 1) (_ bv0 1))))
 (let ((?x770518 (ite $x371740 (_ bv1 1) (_ bv0 1))))
 (let ((?x1252875 (concat (concat (concat (_ bv0 16) (ite $x44280 (_ bv1 1) (_ bv0 1))) (ite $x376080 (_ bv1 1) (_ bv0 1))) ?x770518)))
 (let ((?x1191544 (concat (concat (concat (concat (concat ?x1252875 ?x768983) ?x769606) ?x770463) ?x768059) ?x770510)))
 (let ((?x1311780 (concat (concat (concat (concat (concat ?x1191544 ?x769314) ?x769489) ?x770619) ?x767768) ?x769725)))
 (let ((?x1308261 (concat (concat (concat ?x1311780 ?x775980) ?x95739) ?x776102)))
 (let (($x274622 (not $x44280)))
 (let (($x1907219 (not $x376080)))
 (let (($x1905826 (not $x371740)))
 (let (($x1925406 (not $x770866)))
 (let (($x1900487 (not $x770301)))
 (let (($x276534 (not $x770489)))
 (let (($x1922846 (not $x767489)))
 (let (($x275926 (not $x770670)))
 (let (($x278903 (not $x770931)))
 (let (($x1904822 (not $x770647)))
 (let (($x1904428 (not $x770651)))
 (let (($x280074 (not $x770645)))
 (let (($x274353 (not $x770675)))
 (let (($x1903735 (not $x770719)))
 (let (($x1985257 (not $x770724)))
 (let (($x1983548 (not $x770657)))
 (let (($x1891553 (and $x1983548 $x1985257 $x1903735 $x274353 $x280074 $x1904428 $x1904822 $x278903 $x275926 $x1922846 $x276534 $x1900487 $x1925406 $x1905826 $x1907219 $x274622)))
 (let ((?x1912860 (ite $x1891553 ?x1308261 ?x1898957)))
 (let ((?x1905154 (concat (_ bv0 32) ?x1912860)))
 (let ((?x2673600 (bvadd (bvadd (_ bv1 64) ?x1905154) ?x15071)))
 (and (distinct (_ bv0 64) ?x2673600) true))))))))))))))))))))))))))))))))))))))))))))))))))))))))))))))))))))))))))))))))))))))))))))))))
(minimize mem_fffffff9feffffff_124_8)
(minimize syscall_stub_newfstatat_83_64)
(maximize mem_c0000f45_79_992)
(maximize mem_c0001010_98_32)
(maximize mem_fffffff9ff000000_360_128)
(minimize mem_c0000f45_79_992)
(minimize mem_fffffff9ff000000_360_128)
(minimize mem_c0001010_98_32)
(maximize syscall_stub_newfstatat_83_64)
(maximize mem_fffffff9feffffff_124_8)
(check-sat)
(get-objectives)
